(set-logic ALL)
(declare-fun var0 () String)
(assert (str.in_re var0 (re.++ (re.+ (re.* (str.to_re "000"))) (re.++ (re.* (re.+ (str.to_re "111"))) (re.++ (re.+ (re.* (str.to_re "222"))) (re.++ (re.+ (re.* (str.to_re "33"))) (re.++ (re.+ (re.* (str.to_re "444"))) (re.++ (re.* (re.* (str.to_re "555"))) (re.++ (re.+ (re.* (str.to_re "66"))) (re.++ (re.+ (re.union (str.to_re "777") (str.to_re "88"))) (re.++ (re.+ (re.* (str.to_re "999"))) (re.++ (re.* (re.* (str.to_re "aa"))) (re.++ (re.union (re.* (str.to_re "bbb")) (re.* (str.to_re "ccc"))) (re.++ (re.* (re.* (str.to_re "ddd"))) (re.++ (re.union (re.+ (str.to_re "ee")) (re.+ (str.to_re "ff"))) (re.++ (re.* (re.union (str.to_re "ggg") (str.to_re "h"))) (re.++ (re.union (re.* (str.to_re "ii")) (re.* (str.to_re "jj"))) (re.++ (re.+ (re.* (str.to_re "kk"))) (re.++ (re.+ (re.* (str.to_re "lll"))) (re.++ (re.* (re.+ (str.to_re "m"))) (re.++ (re.+ (re.union (str.to_re "nn") (str.to_re "oo"))) (re.++ (re.+ (re.union (str.to_re "p") (str.to_re "q"))) (re.++ (re.+ (re.union (str.to_re "rrr") (str.to_re "sss"))) (re.++ (re.union (re.* (str.to_re "tt")) (re.* (str.to_re "u"))) (re.++ (re.union (re.+ (str.to_re "v")) (re.+ (str.to_re "ww"))) (re.++ (re.union (re.union (str.to_re "xx") (str.to_re "yyy")) (re.union (str.to_re "zzz") (str.to_re "A"))) (re.++ (re.union (re.* (str.to_re "B")) (re.* (str.to_re "CCC"))) (re.++ (re.union (re.union (str.to_re "DDD") (str.to_re "E")) (re.union (str.to_re "F") (str.to_re "G"))) (re.++ (re.union (re.union (str.to_re "HH") (str.to_re "III")) (re.union (str.to_re "JJJ") (str.to_re "KK"))) (re.++ (re.+ (re.union (str.to_re "L") (str.to_re "MMM"))) (re.++ (re.union (re.+ (str.to_re "NNN")) (re.+ (str.to_re "OOO"))) (re.++ (re.* (re.* (str.to_re "PP"))) (re.++ (re.* (re.union (str.to_re "QQQ") (str.to_re "RR"))) (re.++ (re.union (re.* (str.to_re "S")) (re.* (str.to_re "TT"))) (re.++ (re.union (re.union (str.to_re "UU") (str.to_re "VVV")) (re.union (str.to_re "W") (str.to_re "XXX"))) (re.++ (re.+ (re.+ (str.to_re "YYY"))) (re.++ (re.* (re.+ (str.to_re "Z"))) (re.++ (re.* (re.union (str.to_re "!!") (str.to_re """"""""))) (re.++ (re.union (re.union (str.to_re "###") (str.to_re "$$")) (re.union (str.to_re "%") (str.to_re "&&&"))) (re.++ (re.* (re.+ (str.to_re "'''"))) (re.++ (re.+ (re.* (str.to_re "(("))) (re.++ (re.* (re.+ (str.to_re ")"))) (re.++ (re.* (re.+ (str.to_re "*"))) (re.++ (re.* (re.+ (str.to_re "++"))) (re.++ (re.* (re.* (str.to_re ",,,"))) (re.++ (re.* (re.* (str.to_re "-"))) (re.++ (re.union (re.+ (str.to_re ".")) (re.+ (str.to_re "///"))) (re.++ (re.* (re.union (str.to_re ":") (str.to_re ";;"))) (re.++ (re.union (re.+ (str.to_re "<")) (re.+ (str.to_re "=="))) (re.++ (re.+ (re.* (str.to_re ">>>"))) (re.++ (re.* (re.union (str.to_re "?") (str.to_re "@@@"))) (re.++ (re.* (re.+ (str.to_re "["))) (re.++ (re.+ (re.union (str.to_re "\\\\\\") (str.to_re "]"))) (re.++ (re.union (re.union (str.to_re "^") (str.to_re "__")) (re.union (str.to_re "```") (str.to_re "{{{"))) (re.++ (re.+ (re.+ (str.to_re "|||"))) (re.++ (re.+ (re.* (str.to_re "}"))) (re.++ (re.+ (re.+ (str.to_re "~~~"))) (re.++ (re.+ (re.+ (str.to_re "00"))) (re.++ (re.+ (re.union (str.to_re "1") (str.to_re "22"))) (re.++ (re.union (re.union (str.to_re "33") (str.to_re "44")) (re.union (str.to_re "5") (str.to_re "6"))) (re.++ (re.* (re.* (str.to_re "77"))) (re.++ (re.+ (re.+ (str.to_re "88"))) (re.++ (re.* (re.+ (str.to_re "999"))) (re.++ (re.union (re.union (str.to_re "aa") (str.to_re "b")) (re.union (str.to_re "cc") (str.to_re "dd"))) (re.++ (re.union (re.* (str.to_re "eee")) (re.* (str.to_re "fff"))) (re.++ (re.+ (re.+ (str.to_re "gg"))) (re.++ (re.* (re.+ (str.to_re "hhh"))) (re.++ (re.+ (re.+ (str.to_re "iii"))) (re.++ (re.union (re.union (str.to_re "jjj") (str.to_re "kk")) (re.union (str.to_re "ll") (str.to_re "mmm"))) (re.++ (re.union (re.+ (str.to_re "n")) (re.+ (str.to_re "o"))) (re.++ (re.union (re.union (str.to_re "ppp") (str.to_re "qq")) (re.union (str.to_re "r") (str.to_re "ss"))) (re.++ (re.union (re.* (str.to_re "ttt")) (re.* (str.to_re "u"))) (re.++ (re.+ (re.* (str.to_re "vv"))) (re.++ (re.union (re.union (str.to_re "w") (str.to_re "x")) (re.union (str.to_re "y") (str.to_re "z"))) (re.++ (re.+ (re.+ (str.to_re "A"))) (re.++ (re.+ (re.union (str.to_re "B") (str.to_re "CC"))) (re.++ (re.* (re.union (str.to_re "D") (str.to_re "EE"))) (re.++ (re.* (re.+ (str.to_re "FFF"))) (re.++ (re.* (re.* (str.to_re "G"))) (re.++ (re.+ (re.union (str.to_re "HH") (str.to_re "II"))) (re.++ (re.* (re.+ (str.to_re "J"))) (re.++ (re.* (re.+ (str.to_re "KKK"))) (re.++ (re.union (re.union (str.to_re "L") (str.to_re "MMM")) (re.union (str.to_re "NNN") (str.to_re "OO"))) (re.++ (re.union (re.union (str.to_re "P") (str.to_re "QQQ")) (re.union (str.to_re "RR") (str.to_re "SS"))) (re.++ (re.+ (re.* (str.to_re "TT"))) (re.++ (re.* (re.union (str.to_re "UU") (str.to_re "VVV"))) (re.+ (re.+ (str.to_re "WW")))))))))))))))))))))))))))))))))))))))))))))))))))))))))))))))))))))))))))))))))))))))))
(check-sat)